! B3LYP def2-TZVPP Opt TightOpt VeryTightSCF

%scf
   MaxIter 400          # Máximo de iteraciones permitidas para el SCF
end

%geom
   TolRMSD 1.0e-5
   TolMAXD 1.0e-4
   TolRMSG 1.0e-5
   TolMAXG 1.0e-4
end

%pal
   nprocs 1
end


%MaxCore 4000            # Memoria máxima por núcleo (en MB)

* xyz 0 1                # Carga total = 0, multiplicidad = 1 (singlete)
O       0.000000   0.000000   0.11779
H       0.000000   0.75545   -0.47116
H       0.000000  -0.75545   -0.47116
*
