! LDA def2-TZVPP Opt TightOpt VeryTightSCF

%scf
   MaxIter 400          # Máximo de iteraciones permitidas para el SCF
end

%geom
   TolRMSD 1.0e-5
   TolMAXD 1.0e-4
   TolRMSG 1.0e-5
   TolMAXG 1.0e-4
end

%pal
   nprocs 1
end


%MaxCore 4000            # Memoria máxima por núcleo (en MB)

* xyz 0 1
C      -1.19880240    0.69212860    0.00000000
C      -1.19880240   -0.69212860    0.00000000
C       0.00000000   -1.38425390    0.00000000
C       1.19880240   -0.69212860    0.00000000
C       1.19880240    0.69212860    0.00000000
C       0.00000000    1.38425390    0.00000000
H      -2.13315490   -1.23157780    0.00000000
H       0.00000000   -2.46315180    0.00000000
H       2.13315490   -1.23157780    0.00000000
H       2.13315490    1.23157780    0.00000000
H       0.00000000    2.46315180    0.00000000
H      -2.13315490    1.23157780    0.00000000
*